nP = 2;
nT = 5;
nC1 = 5;
nC2 = 8;
nA = 75;
nD = 3;

arc_from = [1, 1, 1, 1, 1, 2, 2, 2, 2, 2, 3, 3, 3, 3, 3, 4, 4, 4, 4, 4, 5, 5, 5, 5, 5, 6, 6, 6, 6, 6, 7, 7, 7, 7, 7, 8, 8, 8, 8, 8, 8, 8, 8, 9, 9, 9, 9, 9, 9, 9, 9, 10, 10, 10, 10, 10, 10, 10, 10, 11, 11, 11, 11, 11, 11, 11, 11, 12, 12, 12, 12, 12, 12, 12, 12];
arc_to = [3, 4, 5, 6, 7, 3, 4, 5, 6, 7, 8, 9, 10, 11, 12, 8, 9, 10, 11, 12, 8, 9, 10, 11, 12, 8, 9, 10, 11, 12, 8, 9, 10, 11, 12, 13, 14, 15, 16, 17, 18, 19, 20, 13, 14, 15, 16, 17, 18, 19, 20, 13, 14, 15, 16, 17, 18, 19, 20, 13, 14, 15, 16, 17, 18, 19, 20, 13, 14, 15, 16, 17, 18, 19, 20];

supply = [372.99, 372.99, 0.00, 0.00, 0.00, 0.00, 0.00, 0.00, 0.00, 0.00, 0.00, 0.00, 0.00, 0.00, 0.00, 0.00, 0.00, 0.00, 0.00, 0.00];
demand = [0.00, 0.00, 0.00, 0.00, 0.00, 0.00, 0.00, 70.26, 73.70, 72.77, 73.33, 77.80, 69.72, 73.37, 67.49, 60.64, 75.08, 63.63, 76.40, 78.27];

max_capacity = [795, 1414, 3181];

install_cost = array2d(1..nA, 1..nD, [
  20, 24, 32,
  50, 62, 78,
  20, 24, 32,
  50, 62, 78,
  20, 24, 32,
  50, 62, 78,
  20, 24, 32,
  50, 62, 78,
  20, 24, 32,
  50, 62, 78,
  20, 24, 32,
  50, 62, 78,
  20, 24, 32,
  50, 62, 78,
  20, 24, 32,
  50, 62, 78,
  20, 24, 32,
  50, 62, 78,
  20, 24, 32,
  50, 62, 78,
  20, 24, 32,
  50, 62, 78,
  20, 24, 32,
  50, 62, 78,
  20, 24, 32,
  50, 62, 78,
  20, 24, 32,
  50, 62, 78,
  20, 24, 32,
  50, 62, 78,
  20, 24, 32,
  50, 62, 78,
  20, 24, 32,
  50, 62, 78,
  20, 24, 32,
  50, 62, 78,
  20, 24, 32,
  50, 62, 78,
  20, 24, 32,
  50, 62, 78,
  20, 24, 32,
  50, 62, 78,
  20, 24, 32,
  50, 62, 78,
  20, 24, 32,
  50, 62, 78,
  20, 24, 32,
  50, 62, 78,
  20, 24, 32,
  50, 62, 78,
  20, 24, 32,
  50, 62, 78,
  20, 24, 32,
  50, 62, 78,
  20, 24, 32,
  50, 62, 78,
  20, 24, 32,
  50, 62, 78,
  20, 24, 32,
  50, 62, 78,
  20, 24, 32,
  50, 62, 78,
  20, 24, 32,
  50, 62, 78,
  20, 24, 32,
  50, 62, 78,
  20, 24, 32,
  50, 62, 78,
  20, 24, 32,
  50, 62, 78,
  20, 24, 32,
  50, 62, 78,
  20, 24, 32,
  50, 62, 78,
  20, 24, 32
]);

trans_cost = [3.87, 4.70, 3.94, 4.14, 6.19, 3.60, 7.13, 5.63, 6.10, 6.48, 5.35, 7.55, 5.71, 6.89, 5.70, 6.44, 6.42, 6.37, 4.54, 6.65, 5.52, 6.95, 2.77, 3.80, 6.55, 8.79, 7.25, 4.98, 3.46, 7.11, 5.88, 6.89, 6.17, 6.04, 10.44, 5.99, 5.76, 5.82, 5.12, 7.49, 5.47, 6.95, 6.43, 7.83, 6.63, 4.18, 4.01, 8.11, 5.09, 4.02, 5.00, 7.90, 3.87, 4.70, 5.00, 4.12, 4.22, 3.72, 5.31, 5.47, 4.98, 3.52, 7.88, 4.01, 6.42, 4.39, 7.00, 7.43, 4.68, 3.11, 7.04, 8.81, 6.62, 6.24, 7.23];

% Metadata: {'tamaño': 'pequeña', 'numero': 4, 'grupo': 5, 'demanda_total': 932.46, 'suministro_total': 745.98, 'factor_holgura': 0.8, 'num_arcos': 75}
% Total supply: 745.98
% Total demand: 932.46
% Balance factor: 0.80
